language ESSENCE' 1.0
$ Generated from file data/MMLIB50/J5090_2.mm
$ Best heuristic solution: makespan = 44, combo = serial/LST/LFT/earliest_start/resource_fitting
$ Pruned 33 mode(s) by time-window test (horizon = 44)
$ activity,mode,start (1-based indexing)
$ 1,1,0
$ 2,1,0
$ 3,1,0
$ 4,1,0
$ 5,1,1
$ 6,2,2
$ 7,1,0
$ 8,1,0
$ 9,2,5
$ 10,1,4
$ 11,1,2
$ 12,1,0
$ 13,2,0
$ 14,3,3
$ 15,1,8
$ 16,1,8
$ 17,1,9
$ 18,1,9
$ 19,2,6
$ 20,1,8
$ 21,1,10
$ 22,1,16
$ 23,3,8
$ 24,1,18
$ 25,3,14
$ 26,2,14
$ 27,1,18
$ 28,1,23
$ 29,1,18
$ 30,1,27
$ 31,2,23
$ 32,1,27
$ 33,1,22
$ 34,1,14
$ 35,1,27
$ 36,2,23
$ 37,2,23
$ 38,1,30
$ 39,2,34
$ 40,1,28
$ 41,1,31
$ 42,1,34
$ 43,3,30
$ 44,2,34
$ 45,2,37
$ 46,1,38
$ 47,1,42
$ 48,1,42
$ 49,1,37
$ 50,1,37
$ 51,1,42
$ 52,1,44
letting jobs = 52
letting lowerBound = 43
letting horizon = 43
letting resourcesRenew = 2
letting resourcesNonrenew = 2
letting successors = [[2, 3, 4, 7, 8, 12, 13], [14, 11, 6], [17, 10, 9], [19, 5], [17, 9], [19, 9], [19, 9], [23, 20, 19, 18, 17, 15], [23, 20, 18, 16, 15], [23, 20, 19, 18, 15], [23, 20, 16, 15], [22, 20, 17], [20, 17, 16], [18, 17], [34, 26, 25, 21], [34, 29, 27, 26, 25, 24], [34, 29, 27, 26, 25, 24], [34, 33, 26, 22], [34, 29, 27, 26, 25], [34, 27, 25, 24], [22], [29, 27, 24], [37, 29, 28, 27], [37, 36, 31, 28], [36, 33, 32, 30], [37, 36, 31, 30], [36, 35, 30], [35, 32, 30], [43, 42, 39, 38], [50, 45, 43, 42, 38], [50, 45, 43, 42, 38], [46, 42, 41, 39], [40, 35], [46, 45, 44, 40], [51, 44, 42, 39], [42, 41, 39], [51, 44, 40], [46, 41], [50, 49, 45], [50, 42], [49, 44], [49, 48, 47], [46], [48, 47], [48, 47], [51, 47], [52], [52], [52], [52], [52], []]
letting durations = [[0], [2], [4], [1, 2], [4], [2, 2], [3, 4], [6], [2, 3], [2], [1, 3, 6], [3, 5, 10], [3, 3, 4], [4, 5, 6], [2, 3], [1, 7, 8], [1, 4, 6], [1, 5, 9], [4, 8, 10], [4, 9, 9], [6, 7], [2], [4, 5, 7], [5], [1, 5, 8], [1, 5, 7], [3, 6, 9], [4, 5], [7, 8, 10], [1, 2], [7, 7], [3, 4], [5, 6, 7], [1, 3, 10], [7], [1, 2, 5], [5, 5, 9], [1, 2], [1, 3, 6], [1, 5, 7], [3, 4], [3, 4, 8], [3, 7, 8], [8, 8, 9], [2, 5], [4, 8, 9], [2, 3], [2], [2, 3, 3], [2, 8, 9], [1, 4], [0]]
letting resourceUsage = [[[0, 0, 0, 0]], [[6, 0, 7, 8]], [[0, 5, 5, 8]], [[6, 0, 7, 7], [5, 0, 7, 5]], [[0, 6, 10, 8]], [[0, 6, 9, 7], [7, 0, 6, 5]], [[8, 0, 8, 5], [0, 5, 5, 5]], [[0, 5, 10, 5]], [[0, 8, 5, 8], [0, 8, 4, 6]], [[0, 7, 5, 4]], [[10, 0, 6, 6], [0, 6, 4, 5], [0, 5, 3, 5]], [[3, 0, 7, 7], [0, 6, 4, 5], [0, 5, 3, 4]], [[10, 0, 5, 4], [0, 1, 3, 3], [0, 1, 3, 2]], [[0, 8, 6, 7], [0, 5, 4, 6], [4, 0, 2, 3]], [[5, 0, 8, 9], [5, 0, 8, 8]], [[0, 10, 3, 7], [7, 0, 3, 6], [6, 0, 3, 4]], [[5, 0, 2, 8], [0, 2, 2, 8], [4, 0, 1, 7]], [[0, 8, 1, 5], [5, 0, 1, 2], [5, 0, 1, 1]], [[8, 0, 9, 8], [5, 0, 7, 7], [0, 5, 7, 3]], [[9, 0, 7, 4], [9, 0, 7, 3], [0, 3, 5, 4]], [[0, 6, 8, 7], [7, 0, 8, 7]], [[8, 0, 5, 9]], [[6, 0, 7, 4], [6, 0, 6, 2], [4, 0, 3, 2]], [[0, 4, 9, 3]], [[6, 0, 8, 8], [0, 4, 3, 5], [0, 2, 1, 1]], [[0, 8, 9, 5], [4, 0, 7, 4], [4, 0, 6, 4]], [[5, 0, 6, 8], [2, 0, 6, 7], [0, 6, 3, 6]], [[6, 0, 6, 7], [0, 4, 4, 4]], [[8, 0, 4, 6], [8, 0, 4, 5], [6, 0, 4, 6]], [[2, 0, 7, 9], [2, 0, 7, 8]], [[0, 3, 7, 5], [5, 0, 7, 3]], [[0, 10, 6, 7], [0, 10, 6, 6]], [[0, 6, 8, 6], [0, 4, 6, 6], [0, 1, 6, 6]], [[8, 0, 6, 3], [8, 0, 5, 2], [0, 6, 4, 2]], [[6, 0, 3, 5]], [[8, 0, 3, 7], [0, 4, 2, 6], [0, 2, 2, 5]], [[0, 3, 9, 8], [6, 0, 7, 8], [5, 0, 5, 7]], [[2, 0, 7, 9], [0, 8, 4, 7]], [[0, 6, 7, 2], [0, 6, 6, 1], [3, 0, 3, 1]], [[10, 0, 8, 8], [0, 8, 5, 8], [0, 8, 3, 8]], [[0, 8, 5, 7], [5, 0, 4, 6]], [[10, 0, 7, 9], [6, 0, 6, 8], [5, 0, 6, 7]], [[8, 0, 6, 7], [6, 0, 5, 4], [0, 1, 4, 3]], [[3, 0, 2, 8], [0, 8, 2, 8], [2, 0, 2, 8]], [[5, 0, 9, 3], [5, 0, 7, 2]], [[2, 0, 4, 6], [0, 5, 4, 5], [0, 4, 3, 5]], [[8, 0, 7, 10], [8, 0, 6, 6]], [[4, 0, 7, 3]], [[6, 0, 9, 3], [0, 7, 9, 2], [2, 0, 7, 2]], [[7, 0, 9, 6], [5, 0, 9, 6], [0, 2, 7, 5]], [[0, 8, 5, 4], [1, 0, 4, 4]], [[0, 0, 0, 0]]]
letting resourceLimits = [30, 22, 290, 293]
$ Near-critical path lengths (shortest-mode sums): [43, 43, 43, 43, 42]
letting nearCriticalPaths = [[1, 4, 5, 9, 15, 21, 22, 24, 28, 35, 44, 47, 52], [1, 4, 5, 9, 15, 21, 22, 24, 31, 38, 41, 44, 47, 52], [1, 4, 5, 9, 15, 21, 22, 24, 28, 35, 44, 48, 52], [1, 4, 5, 9, 15, 21, 22, 24, 31, 38, 41, 44, 48, 52], [1, 8, 15, 21, 22, 24, 28, 35, 44, 47, 52]]
